288 289 290 276 277 278 279 282 281 280 287 286 285 284 283 334 335 336 337 338 339 340 341 344 343 342 365 368 369 370 367 366 329 328 327 326 325 324 323 322 321 320 319 317 318 305 306 304 303 301 302 508 507 506 307 308 505 504 503 502 501 500 499 452 453 440 439 443 444 445 446 447 448 449 442 441 450 451 312 311 310 309 313 316 314 315 374 373 372 371 396 395 375 376 377 378 379 380 381 390 392 391 393 394 397 398 399 400 401 402 403 404 405 406 407 408 385 386 387 388 389 382 383 384 409 410 411 412 356 355 353 354 357 360 363 364 345 346 362 361 359 358 348 347 349 350 351 352 413 414 415 416 417 418 419 420 421 422 423 424 425 426 427 428 429 431 430 432 433 434 435 436 437 438 454 455 456 457 458 459 460 461 462 463 464 465 496 497 498 519 518 494 524 525 492 491 526 523 522 521 520 517 516 515 514 513 509 510 511 512 527 528 529 490 493 486 487 535 534 488 489 530 531 532 533 231 230 229 228 227 189 190 191 226 225 224 222 221 220 218 219 193 192 184 183 185 186 188 187 182 181 180 179 178 177 176 540 538 539 537 536 484 485 483 481 482 475 476 480 479 477 478 549 548 545 546 547 544 543 541 542 107 108 109 110 111 172 173 174 175 171 170 169 168 162 160 161 112 114 115 116 117 106 105 104 103 102 100 101 551 550 559 560 561 562 563 564 565 566 567 474 473 472 471 495 470 469 468 467 466 571 572 573 0 1 2 3 4 5 6 7 8 9 10 11 14 15 16 17 18 570 569 568 19 20 13 12 23 22 21 24 25 26 27 28 29 31 30 32 36 37 38 39 42 41 40 35 33 34 558 557 556 554 553 552 99 98 96 95 97 94 93 90 92 91 555 45 46 47 44 43 48 49 54 53 55 56 83 82 52 50 51 84 85 86 87 89 88 79 80 81 57 58 59 60 61 63 62 78 77 76 64 75 74 73 119 118 120 121 122 123 71 72 65 66 67 68 70 69 124 125 126 127 128 129 130 131 113 132 133 134 135 136 137 138 139 140 141 142 143 151 150 149 152 148 147 146 144 145 158 157 159 156 155 153 154 164 163 167 166 165 201 200 199 198 202 204 203 208 207 206 205 197 196 195 194 209 210 211 212 213 214 215 216 217 223 232 233 234 235 236 237 240 239 238 246 247 245 244 243 242 241 248 249 250 251 252 254 253 255 256 257 300 299 258 259 260 261 262 263 264 265 266 298 297 296 295 294 293 270 268 267 271 269 272 273 274 275 292 291 330 331 332 333